language Essence 1.3

letting blksize_delta be
        function(1 --> 5, 2 --> 5, 3 --> 4, 4 --> 4, 5 --> 5, 6 --> 5, 7 --> 5, 8 --> 5, 9 --> 5, 10 --> 5, 11 --> 5,
                 12 --> 5, 13 --> 5, 14 --> 5, 15 --> 5, 16 --> 5, 17 --> 5, 18 --> 5, 19 --> 5, 20 --> 5, 21 --> 5,
                 22 --> 5, 23 --> 5, 24 --> 3, 25 --> 5, 26 --> 5, 27 --> 5, 28 --> 5, 29 --> 5, 30 --> 5, 31 --> 5,
                 32 --> 5, 33 --> 3, 34 --> 5, 35 --> 5, 36 --> 5, 37 --> 5, 38 --> 5, 39 --> 4, 40 --> 5, 41 --> 5,
                 42 --> 4, 43 --> 5, 44 --> 5, 45 --> 5, 46 --> 5, 47 --> 5, 48 --> 5, 49 --> 5, 50 --> 5, 51 --> 3,
                 52 --> 4, 53 --> 5, 54 --> 5, 55 --> 5, 56 --> 5, 57 --> 5, 58 --> 5, 59 --> 5, 60 --> 5, 61 --> 5,
                 62 --> 5, 63 --> 5, 64 --> 5, 65 --> 5, 66 --> 5, 67 --> 5, 68 --> 5, 69 --> 5, 70 --> 5, 71 --> 3,
                 72 --> 3, 73 --> 5, 74 --> 5, 75 --> 5, 76 --> 5, 77 --> 5, 78 --> 5, 79 --> 5, 80 --> 3)
letting maxcars be
        function(1 --> 10, 2 --> 10, 3 --> 9, 4 --> 10, 5 --> 10, 6 --> 10, 7 --> 10, 8 --> 10, 9 --> 10, 10 --> 10,
                 11 --> 10, 12 --> 10, 13 --> 10, 14 --> 8, 15 --> 9, 16 --> 10, 17 --> 10, 18 --> 10, 19 --> 10,
                 20 --> 10, 21 --> 10, 22 --> 10, 23 --> 9, 24 --> 9, 25 --> 10, 26 --> 10, 27 --> 10, 28 --> 10,
                 29 --> 10, 30 --> 10, 31 --> 7, 32 --> 10, 33 --> 9, 34 --> 10, 35 --> 10, 36 --> 10, 37 --> 10,
                 38 --> 10, 39 --> 7, 40 --> 10, 41 --> 9, 42 --> 9, 43 --> 10, 44 --> 10, 45 --> 10, 46 --> 10,
                 47 --> 10, 48 --> 10, 49 --> 10, 50 --> 10, 51 --> 10, 52 --> 10, 53 --> 10, 54 --> 10, 55 --> 10,
                 56 --> 10, 57 --> 10, 58 --> 10, 59 --> 10, 60 --> 10, 61 --> 10, 62 --> 10, 63 --> 7, 64 --> 10,
                 65 --> 9, 66 --> 10, 67 --> 10, 68 --> 10, 69 --> 10, 70 --> 10, 71 --> 7, 72 --> 9, 73 --> 7,
                 74 --> 10, 75 --> 10, 76 --> 10, 77 --> 10, 78 --> 10, 79 --> 8, 80 --> 10)
letting n_cars be 146
letting n_classes be 2
letting n_options be 80
letting quantity be function(1 --> 73, 2 --> 73)
letting usage be
        relation((1, 1), (1, 2), (1, 3), (1, 4), (1, 5), (1, 6), (1, 7), (1, 8), (1, 9), (1, 10), (1, 11), (1, 12),
                 (1, 13), (1, 14), (1, 15), (1, 16), (1, 17), (1, 18), (1, 19), (1, 20), (1, 21), (1, 22), (1, 23),
                 (1, 24), (1, 25), (1, 26), (1, 27), (1, 28), (1, 29), (1, 31), (1, 32), (1, 33), (1, 34), (1, 35),
                 (1, 36), (1, 37), (1, 38), (1, 39), (1, 40), (1, 41), (1, 42), (1, 43), (1, 44), (1, 45), (1, 46),
                 (1, 47), (1, 48), (1, 49), (1, 50), (1, 51), (1, 52), (1, 53), (1, 55), (1, 56), (1, 57), (1, 58),
                 (1, 59), (1, 60), (1, 62), (1, 63), (1, 64), (1, 65), (1, 66), (1, 67), (1, 68), (1, 69), (1, 70),
                 (1, 71), (1, 72), (1, 73), (1, 74), (1, 75), (1, 76), (1, 77), (1, 78), (1, 79), (2, 30), (2, 54),
                 (2, 61), (2, 80))
$ Visualisation for usage
$  1  1
$  1  2
$  1  3
$  1  4
$  1  5
$  1  6
$  1  7
$  1  8
$  1  9
$  1 10
$  1 11
$  1 12
$  1 13
$  1 14
$  1 15
$  1 16
$  1 17
$  1 18
$  1 19
$  1 20
$  1 21
$  1 22
$  1 23
$  1 24
$  1 25
$  1 26
$  1 27
$  1 28
$  1 29
$  1 31
$  1 32
$  1 33
$  1 34
$  1 35
$  1 36
$  1 37
$  1 38
$  1 39
$  1 40
$  1 41
$  1 42
$  1 43
$  1 44
$  1 45
$  1 46
$  1 47
$  1 48
$  1 49
$  1 50
$  1 51
$  1 52
$  1 53
$  1 55
$  1 56
$  1 57
$  1 58
$  1 59
$  1 60
$  1 62
$  1 63
$  1 64
$  1 65
$  1 66
$  1 67
$  1 68
$  1 69
$  1 70
$  1 71
$  1 72
$  1 73
$  1 74
$  1 75
$  1 76
$  1 77
$  1 78
$  1 79
$  2 30
$  2 54
$  2 61
$  2 80

